# Solution for model GasLib-40
# Objective value = 4.4474531565969777e+01
loadshed[innode_1] 0
loadshed[innode_2] 0
loadshed[innode_3] 0
loadshed[innode_4] 0
loadshed[innode_5] 0
loadshed[innode_6] 0
loadshed[innode_7] 0
loadshed[innode_8] 0
loadshed[source_1] -6.8199031972679069e-02
loadshed[source_2] 8.8904516900208619e-02
loadshed[source_3] 2.6061814984067222e-01
loadshed[sink_1] 0
loadshed[sink_2] 0
loadshed[sink_3] 0
loadshed[sink_4] 0
loadshed[sink_5] 0
loadshed[sink_6] 0
loadshed[sink_7] 0
loadshed[sink_8] 0
loadshed[sink_9] 0
loadshed[sink_10] 0
loadshed[sink_11] 0
loadshed[sink_12] 1
loadshed[sink_13] 0
loadshed[sink_14] 0
loadshed[sink_15] 0
loadshed[sink_16] 0
loadshed[sink_17] 0
loadshed[sink_18] 0
loadshed[sink_19] 0
loadshed[sink_20] 0
loadshed[sink_21] 1
loadshed[sink_22] 0
loadshed[sink_23] 0
loadshed[sink_24] 7.1946180275993521e-01
loadshed[sink_25] 0
loadshed[sink_26] 0
loadshed[sink_27] 0
loadshed[sink_28] 0
loadshed[sink_29] 0
flow[source_1,sink_3] 1.6887188168651414e+02
flow[innode_1,sink_16] 1.6354166666666970e+01
flow[innode_6,sink_13] -2.4099154088683150e+00
flow[sink_13,sink_14] -1.8764082075534983e+01
flow[sink_14,sink_10] -3.5118248742201651e+01
flow[sink_25,sink_26] 1.2638583517551172e+02
flow[sink_26,sink_9] 1.6354166666669244e+01
flow[sink_9,sink_18] 0
flow[sink_26,sink_4] 9.3677501842175673e+01
flow[sink_4,sink_20] -4.1743799925189364e+01
flow[sink_18,sink_6] -1.6354166666667879e+01
flow[sink_25,innode_8] -1.3616354835317779e+02
flow[sink_6,sink_7] -6.5416666666666671e+01
flow[sink_6,sink_22] 3.2708333333333641e+01
flow[sink_7,sink_24] 4.5879684340302269e+00
flow[sink_22,sink_1] 1.6354166666666970e+01
flow[sink_24,sink_21] 0
flow[sink_21,sink_12] 0
flow[sink_7,sink_5] -8.6358801767365080e+01
flow[sink_5,sink_17] -1.0271296843403175e+02
flow[sink_17,sink_4] -1.1906713510069841e+02
flow[sink_17,sink_8] 0
flow[sink_3,sink_23] 16.3541666666697
flow[sink_8,sink_20] -1.6354166666668334e+01
flow[sink_25,sink_20] 7.4452133258524327e+01
flow[sink_25,sink_15] -7.8618671338656767e+01
flow[sink_15,sink_29] -5.4067237963355616e+01
flow[sink_29,sink_28] 1.6354166666667879e+01
flow[sink_29,sink_2] 5.7259766708634487e+01
flow[sink_2,sink_15] 4.0905600041967816e+01
flow[sink_29,innode_7] -1.4403533800532466e+02
flow[innode_4,sink_19] 45.2153918214548
flow[sink_19,innode_3] 4.1079850059447288e+01
flow[innode_4,innode_5] 7.1673690254080583e+01
flow[sink_27,innode_5] -7.1673690254080583e+01
flow[sink_27,sink_19] 5.5319523587413912e+01
flow[sink_10,sink_11] 3.2708333333333641e+01
flow[sink_10,innode_2] -4.3100898682754668e+01
flow[sink_10,innode_3] -4.1079850059447288e+01
flow[innode_6,sink_25] 2.4099154088683150e+00
flow[sink_11,innode_1] 1.6354166666666970e+01
flow[sink_19,innode_2] 4.3100898682754668e+01
flow[source_3,innode_4] 1.1688908207553538e+02
flow[source_2,innode_7] 1.4403533800532466e+02
flow[sink_3,innode_8] 1.3616354835317779e+02
pressure[innode_1] 7.6751697452309045e+01
pressure[innode_2] 7.9181459267837866e+01
pressure[innode_3] 79.0904925916696
pressure[innode_4] 81.01325
pressure[innode_5] 8.0963949056477844e+01
pressure[innode_6] 7.5195489521419574e+01
pressure[innode_7] 81.01325
pressure[innode_8] 8.0448775810919074e+01
pressure[source_1] 81.01325
pressure[source_2] 81.01325
pressure[source_3] 81.01325
pressure[sink_1] 3.2670394881914540e+00
pressure[sink_2] 7.5710414453849992e+01
pressure[sink_3] 8.0448775810919074e+01
pressure[sink_4] 5.4383809339880948e+01
pressure[sink_5] 4.2182082330398806e+01
pressure[sink_6] 5.3681170985788276e+00
pressure[sink_7] 6.2661320021790177e+00
pressure[sink_8] 5.6306673176880849e+01
pressure[sink_9] 6.5315370288350820e+01
pressure[sink_10] 7.6903398759912591e+01
pressure[sink_11] 7.6751697452309045e+01
pressure[sink_12] 1.01325
pressure[sink_13] 7.5208774982334390e+01
pressure[sink_14] 7.5242354905554933e+01
pressure[sink_15] 75.576866685162
pressure[sink_16] 7.5730047617491365e+01
pressure[sink_17] 4.9833456048074083e+01
pressure[sink_18] 4.9314121558255879e+00
pressure[sink_19] 7.9181459267837866e+01
pressure[sink_20] 5.7446328600469137e+01
pressure[sink_21] 1.01325
pressure[sink_22] 4.3308086305464641e+00
pressure[sink_23] 8.0284057799259273e+01
pressure[sink_24] 1.01325
pressure[sink_25] 7.5195489521419574e+01
pressure[sink_26] 6.6294209372293238e+01
pressure[sink_27] 8.0369189866108229e+01
pressure[sink_28] 7.6865586692528737e+01
pressure[sink_29] 7.7160868966145927e+01
interdiction[source_1,sink_3] 0
interdiction[innode_1,sink_16] 0
interdiction[innode_6,sink_13] 0
interdiction[sink_13,sink_14] 0
interdiction[sink_14,sink_10] 0
interdiction[sink_25,sink_26] 0
interdiction[sink_26,sink_9] 0
interdiction[sink_9,sink_18] 1
interdiction[sink_26,sink_4] 0
interdiction[sink_4,sink_20] 0
interdiction[sink_18,sink_6] 0
interdiction[sink_25,innode_8] 0
interdiction[sink_6,sink_7] 0
interdiction[sink_6,sink_22] 0
interdiction[sink_7,sink_24] 0
interdiction[sink_22,sink_1] 0
interdiction[sink_24,sink_21] 0
interdiction[sink_21,sink_12] 0
interdiction[sink_7,sink_5] 0
interdiction[sink_5,sink_17] 0
interdiction[sink_17,sink_4] 0
interdiction[sink_17,sink_8] 1
interdiction[sink_3,sink_23] 0
interdiction[sink_8,sink_20] 0
interdiction[sink_25,sink_20] 0
interdiction[sink_25,sink_15] 0
interdiction[sink_15,sink_29] 0
interdiction[sink_29,sink_28] 0
interdiction[sink_29,sink_2] 0
interdiction[sink_2,sink_15] 0
interdiction[sink_29,innode_7] 0
interdiction[innode_4,sink_19] 0
interdiction[sink_19,innode_3] 0
interdiction[innode_4,innode_5] 0
interdiction[sink_27,innode_5] 0
interdiction[sink_27,sink_19] 0
interdiction[sink_10,sink_11] 0
interdiction[sink_10,innode_2] 0
interdiction[sink_10,innode_3] 0
interdiction[innode_6,sink_25] 0
interdiction[sink_11,innode_1] 0
interdiction[sink_19,innode_2] 0
interdiction[source_3,innode_4] 0
interdiction[source_2,innode_7] 0
interdiction[sink_3,innode_8] 0
WCcheckFlow[source_1,sink_3] 39
WCcheckFlow[innode_1,sink_16] 1
WCcheckFlow[innode_6,sink_13] 13
WCcheckFlow[sink_13,sink_14] 12
WCcheckFlow[sink_14,sink_10] 11
WCcheckFlow[sink_25,sink_26] 15
WCcheckFlow[sink_26,sink_9] 1
WCcheckFlow[sink_9,sink_18] 0
WCcheckFlow[sink_26,sink_4] 13
WCcheckFlow[sink_4,sink_20] 2
WCcheckFlow[sink_18,sink_6] -1
WCcheckFlow[sink_25,innode_8] -36
WCcheckFlow[sink_6,sink_7] -4
WCcheckFlow[sink_6,sink_22] 2
WCcheckFlow[sink_7,sink_24] 3
WCcheckFlow[sink_22,sink_1] 1
WCcheckFlow[sink_24,sink_21] 2
WCcheckFlow[sink_21,sink_12] 1
WCcheckFlow[sink_7,sink_5] -8
WCcheckFlow[sink_5,sink_17] -9
WCcheckFlow[sink_17,sink_4] -10
WCcheckFlow[sink_17,sink_8] 0
WCcheckFlow[sink_3,sink_23] 1
WCcheckFlow[sink_8,sink_20] -1
WCcheckFlow[sink_25,sink_20] 0
WCcheckFlow[sink_25,sink_15] 6
WCcheckFlow[sink_15,sink_29] 5
WCcheckFlow[sink_29,sink_28] 1
WCcheckFlow[sink_29,sink_2] 1
WCcheckFlow[sink_2,sink_15] 0
WCcheckFlow[sink_29,innode_7] 2
WCcheckFlow[innode_4,sink_19] -4
WCcheckFlow[sink_19,innode_3] -5
WCcheckFlow[innode_4,innode_5] 2
WCcheckFlow[sink_27,innode_5] -1
WCcheckFlow[sink_27,sink_19] 0
WCcheckFlow[sink_10,sink_11] 3
WCcheckFlow[sink_10,innode_2] 1
WCcheckFlow[sink_10,innode_3] 6
WCcheckFlow[innode_6,sink_25] -14
WCcheckFlow[sink_11,innode_1] 2
WCcheckFlow[sink_19,innode_2] 0
WCcheckFlow[source_3,innode_4] -1
WCcheckFlow[source_2,innode_7] -1
WCcheckFlow[sink_3,innode_8] 37
